db/data/21721444919372920410432290182608510506.z3.out
-------------------
2500.161301075
